(set-logic QF_S)
(declare-fun var_0xINPUT_243432 () String)
(assert (and (= (len var_0xINPUT_243432) 0) (= (len var_0xINPUT_243432) 0) (not (= var_0xINPUT_243432 "MEXdqBDMmF"))))
(check-sat var_0xINPUT_243432)